networks/zoo_72_255/zoo_72_255-lower.txt
Number of groups: 34
Flow 1: {1 2 0} {2 7 0} {7 43 0} 
Flow 2: {2 1 0} {1 4 0} {4 40 0} 
Flow 3: {7 5 0} {5 41 0} 
Flow 5: {7 8 0} {8 44 0} 
Flow 6: {4 3 0} {3 22 0} {22 21 0} {21 57 0} 
Flow 7: {4 28 0} {28 64 0} 
Flow 8: {7 31 0} {31 32 0} {32 68 0} 
Flow 9: {7 35 0} {35 71 0} 
Flow 10: {4 1 0} {1 37 0} 
Flow 10: {3 4 0} Flow 11: {2 38 0} 
Flow 14: {4 10 0} {10 6 0} {6 42 0} 
Flow 17: {6 9 0} {9 45 0} 
Flow 18: {10 46 0} 
Flow 19: {4 15 0} {15 51 0} 
Flow 20: {4 16 0} {16 52 0} 
Flow 21: {7 17 0} {17 53 0} 
Flow 22: {7 18 0} {18 54 0} 
Flow 23: {21 20 0} {20 56 0} 
Flow 25: {7 24 0} {24 60 0} 
Flow 27: {31 29 0} {29 65 0} 
Flow 28: {6 32 0} Flow 29: {6 34 0} {34 33 0} {33 69 0} 
Flow 30: {28 27 0} {27 35 0} Flow 31: {27 36 0} {36 72 0} 
Flow 34: {3 39 0} 
Flow 41: {4 11 0} {11 47 0} 
Flow 42: {4 12 0} {12 48 0} 
Flow 43: {4 13 0} {13 49 0} 
Flow 44: {4 14 0} {14 50 0} 
Flow 49: {10 25 0} {25 19 0} {19 55 0} 
Flow 52: {22 58 0} 
Flow 54: {19 26 0} {26 62 0} 
Flow 55: {27 63 0} 
Flow 58: {31 30 0} {30 66 0} 
Flow 59: {31 67 0} 
Flow 62: {34 70 0} 
Flow 65: {5 7 0} Flow 67: {6 10 0} {10 4 0} Flow 68: {32 31 0} {31 7 0} Flow 75: {34 35 0} Flow 76: {7 2 0} Flow 81: {35 34 0} {34 6 0} Flow 95: {35 27 0} {27 28 0} Flow 99: {31 33 0} Flow 102: {8 7 0} Flow 103: {8 5 0} Flow 109: {9 6 0} Flow 112: {11 4 0} Flow 119: {12 4 0} Flow 121: {13 4 0} Flow 123: {14 4 0} Flow 127: {15 4 0} Flow 134: {16 4 0} Flow 136: {17 7 0} Flow 137: {18 7 0} Flow 143: {19 25 0} {25 10 0} Flow 145: {19 20 0} {20 21 0} Flow 148: {20 19 0} Flow 161: {21 22 0} {22 3 0} Flow 166: {23 7 0} Flow 171: {24 7 0} Flow 196: {26 19 0} Flow 202: {35 7 0} Flow 205: {29 31 0} Flow 210: {30 31 0} Flow 216: {32 6 0} Flow 234: {33 31 0} Flow 236: {33 34 0} Flow 252: {28 4 0} Flow 255: {36 27 0} Time taken running everything: 0 seconds
