networks/zoo_72_255/zoo_72_255-lower.sol
<?xml version = "1.0" encoding="UTF-8" standalone="yes"?>
<CPLEXSolution version="1.2">
 <header
   problemName="networks/zoo_72_255/zoo_72_255-lower.lp"
   solutionName="incumbent"
   solutionIndex="-1"
   objectiveValue="34"
   solutionTypeValue="3"
   solutionTypeString="primal"
   solutionStatusValue="101"
   solutionStatusString="integer optimal solution"
   solutionMethodString="mip"
   primalFeasible="1"
   dualFeasible="1"
   MIPNodes="0"
   MIPIterations="0"
   writeLevel="3"/>
 <quality
   epInt="1.0000000000000001e-05"
   epRHS="9.9999999999999995e-07"
   maxIntInfeas="0"
   maxPrimalInfeas="0"
   maxX="1"
   maxSlack="1"/>
 <variables>
  <variable name="Y(1,7)" index="6" value="1"/>
  <variable name="Y(2,4)" index="73" value="1"/>
  <variable name="Y(3,5)" index="144" value="1"/>
  <variable name="Y(5,8)" index="287" value="1"/>
  <variable name="Y(6,21)" index="370" value="1"/>
  <variable name="Y(7,28)" index="447" value="1"/>
  <variable name="Y(8,32)" index="521" value="1"/>
  <variable name="Y(9,35)" index="594" value="1"/>
  <variable name="Y(10,1)" index="630" value="1"/>
  <variable name="Y(11,2)" index="701" value="1"/>
  <variable name="Y(14,6)" index="915" value="1"/>
  <variable name="Y(17,9)" index="1128" value="1"/>
  <variable name="Y(18,10)" index="1199" value="1"/>
  <variable name="Y(19,15)" index="1274" value="1"/>
  <variable name="Y(20,16)" index="1345" value="1"/>
  <variable name="Y(21,17)" index="1416" value="1"/>
  <variable name="Y(22,18)" index="1487" value="1"/>
  <variable name="Y(23,20)" index="1559" value="1"/>
  <variable name="Y(25,24)" index="1703" value="1"/>
  <variable name="Y(27,29)" index="1848" value="1"/>
  <variable name="Y(29,33)" index="1992" value="1"/>
  <variable name="Y(31,36)" index="2135" value="1"/>
  <variable name="Y(34,3)" index="2312" value="1"/>
  <variable name="Y(41,11)" index="2810" value="1"/>
  <variable name="Y(42,12)" index="2881" value="1"/>
  <variable name="Y(43,13)" index="2952" value="1"/>
  <variable name="Y(44,14)" index="3023" value="1"/>
  <variable name="Y(49,19)" index="3378" value="1"/>
  <variable name="Y(52,22)" index="3591" value="1"/>
  <variable name="Y(54,26)" index="3735" value="1"/>
  <variable name="Y(55,27)" index="3806" value="1"/>
  <variable name="Y(58,30)" index="4019" value="1"/>
  <variable name="Y(59,31)" index="4090" value="1"/>
  <variable name="Y(62,34)" index="4303" value="1"/>
  <variable name="X(1,2,1)" index="17850" value="1"/>
  <variable name="X(1,4,2)" index="18106" value="1"/>
  <variable name="X(1,37,10)" index="18369" value="1"/>
  <variable name="X(2,1,2)" index="18616" value="1"/>
  <variable name="X(2,7,1)" index="18870" value="1"/>
  <variable name="X(2,38,11)" index="19135" value="1"/>
  <variable name="X(3,4,10)" index="19389" value="1"/>
  <variable name="X(3,22,6)" index="19640" value="1"/>
  <variable name="X(3,39,34)" index="19923" value="1"/>
  <variable name="X(4,1,10)" index="20154" value="1"/>
  <variable name="X(4,3,6)" index="20405" value="1"/>
  <variable name="X(4,10,14)" index="20668" value="1"/>
  <variable name="X(4,11,41)" index="20950" value="1"/>
  <variable name="X(4,12,42)" index="21206" value="1"/>
  <variable name="X(4,13,43)" index="21462" value="1"/>
  <variable name="X(4,14,44)" index="21718" value="1"/>
  <variable name="X(4,15,19)" index="21948" value="1"/>
  <variable name="X(4,16,20)" index="22204" value="1"/>
  <variable name="X(4,28,7)" index="22446" value="1"/>
  <variable name="X(4,40,2)" index="22696" value="1"/>
  <variable name="X(5,7,65)" index="23014" value="1"/>
  <variable name="X(5,41,3)" index="23207" value="1"/>
  <variable name="X(6,9,17)" index="23476" value="1"/>
  <variable name="X(6,10,67)" index="23781" value="1"/>
  <variable name="X(6,32,28)" index="23997" value="1"/>
  <variable name="X(6,34,29)" index="24253" value="1"/>
  <variable name="X(6,42,14)" index="24493" value="1"/>
  <variable name="X(7,2,76)" index="24810" value="1"/>
  <variable name="X(7,5,3)" index="24992" value="1"/>
  <variable name="X(7,8,5)" index="25249" value="1"/>
  <variable name="X(7,17,21)" index="25520" value="1"/>
  <variable name="X(7,18,22)" index="25776" value="1"/>
  <variable name="X(7,24,25)" index="26034" value="1"/>
  <variable name="X(7,31,8)" index="26272" value="1"/>
  <variable name="X(7,35,9)" index="26528" value="1"/>
  <variable name="X(7,43,1)" index="26775" value="1"/>
  <variable name="X(8,5,103)" index="27132" value="1"/>
  <variable name="X(8,7,102)" index="27386" value="1"/>
  <variable name="X(8,44,5)" index="27544" value="1"/>
  <variable name="X(9,6,109)" index="27903" value="1"/>
  <variable name="X(9,45,17)" index="28066" value="1"/>
  <variable name="X(10,4,67)" index="28371" value="1"/>
  <variable name="X(10,6,14)" index="28573" value="1"/>
  <variable name="X(10,25,49)" index="28863" value="1"/>
  <variable name="X(10,46,18)" index="29087" value="1"/>
  <variable name="X(11,4,112)" index="29436" value="1"/>
  <variable name="X(11,47,41)" index="29620" value="1"/>
  <variable name="X(12,4,119)" index="29953" value="1"/>
  <variable name="X(12,48,42)" index="30131" value="1"/>
  <variable name="X(13,4,121)" index="30465" value="1"/>
  <variable name="X(13,49,43)" index="30642" value="1"/>
  <variable name="X(14,4,123)" index="30977" value="1"/>
  <variable name="X(14,50,44)" index="31153" value="1"/>
  <variable name="X(15,4,127)" index="31491" value="1"/>
  <variable name="X(15,51,19)" index="31638" value="1"/>
  <variable name="X(16,4,134)" index="32008" value="1"/>
  <variable name="X(16,52,20)" index="32149" value="1"/>
  <variable name="X(17,7,136)" index="32520" value="1"/>
  <variable name="X(17,53,21)" index="32660" value="1"/>
  <variable name="X(18,7,137)" index="33031" value="1"/>
  <variable name="X(18,54,22)" index="33171" value="1"/>
  <variable name="X(19,20,145)" index="33549" value="1"/>
  <variable name="X(19,25,143)" index="33802" value="1"/>
  <variable name="X(19,26,54)" index="33968" value="1"/>
  <variable name="X(19,55,49)" index="34218" value="1"/>
  <variable name="X(20,19,148)" index="34572" value="1"/>
  <variable name="X(20,21,145)" index="34824" value="1"/>
  <variable name="X(20,56,23)" index="34957" value="1"/>
  <variable name="X(21,20,23)" index="35212" value="1"/>
  <variable name="X(21,22,161)" index="35605" value="1"/>
  <variable name="X(21,57,6)" index="35705" value="1"/>
  <variable name="X(22,3,161)" index="36115" value="1"/>
  <variable name="X(22,21,6)" index="36215" value="1"/>
  <variable name="X(22,58,52)" index="36516" value="1"/>
  <variable name="X(23,7,166)" index="36885" value="1"/>
  <variable name="X(24,7,171)" index="37145" value="1"/>
  <variable name="X(24,60,25)" index="37254" value="1"/>
  <variable name="X(25,10,143)" index="37627" value="1"/>
  <variable name="X(25,19,49)" index="37788" value="1"/>
  <variable name="X(26,19,196)" index="38190" value="1"/>
  <variable name="X(26,62,54)" index="38303" value="1"/>
  <variable name="X(27,28,95)" index="38599" value="1"/>
  <variable name="X(27,35,30)" index="38789" value="1"/>
  <variable name="X(27,36,31)" index="39045" value="1"/>
  <variable name="X(27,63,55)" index="39324" value="1"/>
  <variable name="X(28,4,252)" index="39776" value="1"/>
  <variable name="X(28,27,30)" index="39809" value="1"/>
  <variable name="X(28,64,7)" index="40041" value="1"/>
  <variable name="X(29,31,205)" index="40494" value="1"/>
  <variable name="X(29,65,27)" index="40571" value="1"/>
  <variable name="X(30,31,210)" index="41009" value="1"/>
  <variable name="X(30,66,58)" index="41112" value="1"/>
  <variable name="X(31,7,68)" index="41377" value="1"/>
  <variable name="X(31,29,27)" index="41591" value="1"/>
  <variable name="X(31,30,58)" index="41877" value="1"/>
  <variable name="X(31,32,8)" index="42082" value="1"/>
  <variable name="X(31,33,99)" index="42428" value="1"/>
  <variable name="X(31,67,59)" index="42643" value="1"/>
  <variable name="X(32,6,216)" index="43055" value="1"/>
  <variable name="X(32,31,68)" index="43162" value="1"/>
  <variable name="X(32,68,8)" index="43357" value="1"/>
  <variable name="X(33,31,234)" index="43838" value="1"/>
  <variable name="X(33,34,236)" index="44095" value="1"/>
  <variable name="X(33,69,29)" index="44143" value="1"/>
  <variable name="X(34,6,81)" index="44450" value="1"/>
  <variable name="X(34,33,29)" index="44653" value="1"/>
  <variable name="X(34,35,75)" index="44954" value="1"/>
  <variable name="X(34,70,62)" index="45196" value="1"/>
  <variable name="X(35,7,202)" index="45591" value="1"/>
  <variable name="X(35,27,95)" index="45739" value="1"/>
  <variable name="X(35,34,81)" index="45980" value="1"/>
  <variable name="X(35,71,9)" index="46163" value="1"/>
  <variable name="X(36,27,255)" index="46664" value="1"/>
  <variable name="X(36,72,31)" index="46695" value="1"/>
 </variables>
</CPLEXSolution>
